

******************************************************************************
This program contains Ipopt, a library for large-scale nonlinear optimization.
 Ipopt is released as open source code under the Eclipse Public License (EPL).
         For more information visit https://github.com/coin-or/Ipopt
******************************************************************************

This is Ipopt version 3.14.11, running with linear solver MUMPS 5.5.1.

Number of nonzeros in equality constraint Jacobian...:        0
Number of nonzeros in inequality constraint Jacobian.:        0
Number of nonzeros in Lagrangian Hessian.............:       10

Total number of variables............................:        4
                     variables with only lower bounds:        2
                variables with lower and upper bounds:        0
                     variables with only upper bounds:        0
Total number of equality constraints.................:        0
Total number of inequality constraints...............:        0
        inequality constraints with only lower bounds:        0
   inequality constraints with lower and upper bounds:        0
        inequality constraints with only upper bounds:        0

iter    objective    inf_pr   inf_du lg(mu)  ||d||  lg(rg) alpha_du alpha_pr  ls
   0  8.4806324e+04 0.00e+00 1.00e+02  -1.0 0.00e+00    -  0.00e+00 0.00e+00   0
   1  7.2452423e+04 0.00e+00 8.38e+01  -1.0 8.38e-01   2.0 9.96e-01 1.00e+00f  1
   2  5.2376623e+04 0.00e+00 7.48e+01  -1.0 1.59e+00   1.5 1.00e+00 1.00e+00f  1
   3  4.0360771e+04 0.00e+00 1.34e+03  -1.0 2.57e-01   2.9 1.00e+00 1.00e+00f  1
   4  3.6757136e+04 0.00e+00 1.85e+03  -1.0 1.55e-02   5.1 1.00e+00 1.00e+00f  1
   5  3.5645639e+04 0.00e+00 4.11e+03  -1.0 4.86e-02   4.6 1.00e+00 2.46e-01f  2
   6  1.4459791e+04 0.00e+00 2.03e+03  -1.0 1.83e+01    -  6.23e-01 1.00e+00f  1
   7  9.3245852e+03 0.00e+00 1.17e+03  -1.0 3.84e+00    -  1.00e+00 1.00e+00f  1
   8  5.6569532e+03 0.00e+00 6.43e+02  -1.0 4.68e+00    -  8.63e-01 1.00e+00f  1
   9  3.1255693e+03 0.00e+00 3.35e+02  -1.0 5.91e+00    -  1.00e+00 1.00e+00f  1
iter    objective    inf_pr   inf_du lg(mu)  ||d||  lg(rg) alpha_du alpha_pr  ls
  10  1.5670182e+03 0.00e+00 1.64e+02  -1.0 7.24e+00    -  1.00e+00 1.00e+00f  1
  11  6.9271963e+02 0.00e+00 7.51e+01  -1.0 8.51e+00    -  1.00e+00 1.00e+00f  1
  12  2.5830721e+02 0.00e+00 3.14e+01  -1.0 9.49e+00    -  1.00e+00 1.00e+00f  1
  13  7.4517745e+01 0.00e+00 1.15e+01  -1.0 9.88e+00    -  1.00e+00 1.00e+00f  1
  14  1.5198118e+01 0.00e+00 3.32e+00  -1.0 8.90e+00    -  1.00e+00 1.00e+00f  1
  15  3.8804849e+00 0.00e+00 6.08e-01  -1.0 6.20e+00    -  1.00e+00 1.00e+00f  1
  16  3.4497668e+00 0.00e+00 3.01e-02  -1.7 1.53e+00    -  1.00e+00 1.00e+00f  1
  17  3.4476219e+00 0.00e+00 8.45e-05  -2.5 7.82e-02    -  1.00e+00 1.00e+00f  1
  18  3.4473553e+00 0.00e+00 2.82e-06  -3.8 4.09e-02    -  1.00e+00 1.00e+00f  1
  19  3.4473546e+00 0.00e+00 8.29e-09  -5.7 2.22e-03    -  1.00e+00 1.00e+00f  1
iter    objective    inf_pr   inf_du lg(mu)  ||d||  lg(rg) alpha_du alpha_pr  ls
  20  3.4473546e+00 0.00e+00 1.31e-12  -8.6 2.79e-05    -  1.00e+00 1.00e+00f  1

Number of Iterations....: 20

                                   (scaled)                 (unscaled)
Objective...............:   2.4092187367563696e-02    3.4473546190621693e+00
Dual infeasibility......:   1.3051876832302816e-12    1.8675949675639456e-10
Constraint violation....:   0.0000000000000000e+00    0.0000000000000000e+00
Variable bound violation:   0.0000000000000000e+00    0.0000000000000000e+00
Complementarity.........:   2.5067294068773491e-09    3.5868827797562805e-07
Overall NLP error.......:   2.5067294068773491e-09    3.5868827797562805e-07


Number of objective function evaluations             = 26
Number of objective gradient evaluations             = 21
Number of equality constraint evaluations            = 0
Number of inequality constraint evaluations          = 0
Number of equality constraint Jacobian evaluations   = 0
Number of inequality constraint Jacobian evaluations = 0
Number of Lagrangian Hessian evaluations             = 20
Total seconds in IPOPT                               = 0.013

EXIT: Optimal Solution Found.
 
Ipopt 3.14.11: Optimal Solution Found
